p cnf 721 2536
1 0
-2 0
-3 0
-4 0
-5 0
-6 0
-7 0
-8 0
-9 0
-10 0
-11 0
12 13 14 15 0
-12 -13 0
-12 -14 0
-12 -15 0
-13 -14 0
-13 -15 0
-14 -15 0
16 -1 -17 0
1 -16 -17 0
-16 -1 17 0
1 16 17 0
-12 -17 0
1 -16 -18 0
16 -1 -18 0
18 -1 -16 0
18 1 16 0
-13 18 0
-1 19 0
-16 19 0
1 16 -19 0
1 -19 -20 0
-1 19 -20 0
-1 -19 20 0
1 19 20 0
-14 20 0
16 21 0
1 21 0
-16 -1 -21 0
-1 21 -22 0
1 -21 -22 0
22 -21 -1 0
1 21 22 0
-15 -22 0
23 -2 -24 0
2 -23 -24 0
-23 -2 24 0
2 23 24 0
-12 -24 0
2 -25 -26 0
25 -2 -26 0
26 -2 -25 0
26 2 25 0
-13 26 0
-23 27 0
-25 27 0
-28 27 0
-29 27 0
-30 27 0
-31 27 0
-32 27 0
33 0
2 -27 -34 0
-2 27 -34 0
-2 -27 34 0
2 27 34 0
-14 34 0
23 35 0
25 35 0
28 35 0
29 35 0
30 35 0
31 35 0
32 35 0
-36 0
-2 35 -37 0
2 -35 -37 0
37 -35 -2 0
2 35 37 0
-15 -37 0
25 -38 -39 0
38 -25 -39 0
-25 -38 39 0
25 38 39 0
-12 -39 0
38 -28 -40 0
28 -38 -40 0
40 -38 -28 0
40 38 28 0
-13 40 0
-25 41 0
-28 41 0
-29 41 0
-30 41 0
-31 41 0
-32 41 0
25 28 29 30 31 32 -41 0
38 -41 -42 0
-38 41 -42 0
-38 -41 42 0
38 41 42 0
-14 42 0
25 43 0
28 43 0
29 43 0
30 43 0
31 43 0
32 43 0
-44 0
-38 43 -45 0
38 -43 -45 0
45 -43 -38 0
38 43 45 0
-15 -45 0
28 -46 -47 0
46 -28 -47 0
-28 -46 47 0
28 46 47 0
-12 -47 0
46 -29 -48 0
29 -46 -48 0
48 -46 -29 0
48 46 29 0
-13 48 0
-28 49 0
-29 49 0
-30 49 0
-31 49 0
-32 49 0
28 29 30 31 32 -49 0
46 -49 -50 0
-46 49 -50 0
-46 -49 50 0
46 49 50 0
-14 50 0
28 51 0
29 51 0
30 51 0
31 51 0
32 51 0
-52 0
-46 51 -53 0
46 -51 -53 0
53 -51 -46 0
46 51 53 0
-15 -53 0
29 -54 -55 0
54 -29 -55 0
-29 -54 55 0
29 54 55 0
-12 -55 0
54 -30 -56 0
30 -54 -56 0
56 -54 -30 0
56 54 30 0
-13 56 0
54 -49 -57 0
-54 49 -57 0
-54 -49 57 0
54 49 57 0
-14 57 0
-54 51 -58 0
54 -51 -58 0
58 -51 -54 0
54 51 58 0
-15 -58 0
30 -59 -60 0
59 -30 -60 0
-30 -59 60 0
30 59 60 0
-12 -60 0
59 -31 -61 0
31 -59 -61 0
61 -59 -31 0
61 59 31 0
-13 61 0
59 -49 -62 0
-59 49 -62 0
-59 -49 62 0
59 49 62 0
-14 62 0
-59 51 -63 0
59 -51 -63 0
63 -51 -59 0
59 51 63 0
-15 -63 0
31 -64 -65 0
64 -31 -65 0
-31 -64 65 0
31 64 65 0
-12 -65 0
64 -32 -66 0
32 -64 -66 0
66 -64 -32 0
66 64 32 0
-13 66 0
64 -49 -67 0
-64 49 -67 0
-64 -49 67 0
64 49 67 0
-14 67 0
-64 51 -68 0
64 -51 -68 0
68 -51 -64 0
64 51 68 0
-15 -68 0
32 -69 -70 0
69 -32 -70 0
-32 -69 70 0
32 69 70 0
-12 -70 0
-28 69 -71 0
28 -69 -71 0
71 -69 -28 0
71 69 28 0
-13 71 0
-32 72 0
-46 72 0
32 46 -72 0
69 -72 -73 0
-69 72 -73 0
-69 -72 73 0
69 72 73 0
-14 73 0
32 74 0
46 74 0
-32 -46 -74 0
-69 74 -75 0
69 -74 -75 0
75 -74 -69 0
69 74 75 0
-15 -75 0
76 -3 -77 0
3 -76 -77 0
-76 -3 77 0
3 76 77 0
-12 -77 0
3 -78 -79 0
78 -3 -79 0
79 -3 -78 0
79 3 78 0
-13 79 0
-76 80 0
-78 80 0
-81 80 0
-82 80 0
-83 80 0
-84 80 0
-85 80 0
-86 80 0
-87 80 0
-88 80 0
-89 80 0
-90 80 0
91 0
3 -80 -92 0
-3 80 -92 0
-3 -80 92 0
3 80 92 0
-14 92 0
76 93 0
78 93 0
81 93 0
82 93 0
83 93 0
84 93 0
85 93 0
86 93 0
87 93 0
88 93 0
89 93 0
90 93 0
-94 0
-3 93 -95 0
3 -93 -95 0
95 -93 -3 0
3 93 95 0
-15 -95 0
78 -96 -97 0
96 -78 -97 0
-78 -96 97 0
78 96 97 0
-12 -97 0
96 -81 -98 0
81 -96 -98 0
98 -96 -81 0
98 96 81 0
-13 98 0
-78 99 0
-81 99 0
-82 99 0
-83 99 0
-84 99 0
-85 99 0
-86 99 0
-87 99 0
-88 99 0
-89 99 0
-90 99 0
100 0
96 -99 -101 0
-96 99 -101 0
-96 -99 101 0
96 99 101 0
-14 101 0
78 102 0
81 102 0
82 102 0
83 102 0
84 102 0
85 102 0
86 102 0
87 102 0
88 102 0
89 102 0
90 102 0
-103 0
-96 102 -104 0
96 -102 -104 0
104 -102 -96 0
96 102 104 0
-15 -104 0
81 -105 -106 0
105 -81 -106 0
-81 -105 106 0
81 105 106 0
-12 -106 0
105 -82 -107 0
82 -105 -107 0
107 -105 -82 0
107 105 82 0
-13 107 0
-81 108 0
-82 108 0
-83 108 0
-84 108 0
-85 108 0
-86 108 0
-87 108 0
-88 108 0
-89 108 0
-90 108 0
109 0
105 -108 -110 0
-105 108 -110 0
-105 -108 110 0
105 108 110 0
-14 110 0
81 111 0
82 111 0
83 111 0
84 111 0
85 111 0
86 111 0
87 111 0
88 111 0
89 111 0
90 111 0
-112 0
-105 111 -113 0
105 -111 -113 0
113 -111 -105 0
105 111 113 0
-15 -113 0
82 -114 -115 0
114 -82 -115 0
-82 -114 115 0
82 114 115 0
-12 -115 0
114 -83 -116 0
83 -114 -116 0
116 -114 -83 0
116 114 83 0
-13 116 0
-82 117 0
-83 117 0
-84 117 0
-85 117 0
-86 117 0
-87 117 0
-88 117 0
-89 117 0
-90 117 0
118 0
114 -117 -119 0
-114 117 -119 0
-114 -117 119 0
114 117 119 0
-14 119 0
82 120 0
83 120 0
84 120 0
85 120 0
86 120 0
87 120 0
88 120 0
89 120 0
90 120 0
-121 0
-114 120 -122 0
114 -120 -122 0
122 -120 -114 0
114 120 122 0
-15 -122 0
83 -123 -124 0
123 -83 -124 0
-83 -123 124 0
83 123 124 0
-12 -124 0
123 -84 -125 0
84 -123 -125 0
125 -123 -84 0
125 123 84 0
-13 125 0
-83 126 0
-84 126 0
-85 126 0
-86 126 0
-87 126 0
-88 126 0
-89 126 0
-90 126 0
127 0
123 -126 -128 0
-123 126 -128 0
-123 -126 128 0
123 126 128 0
-14 128 0
83 129 0
84 129 0
85 129 0
86 129 0
87 129 0
88 129 0
89 129 0
90 129 0
-130 0
-123 129 -131 0
123 -129 -131 0
131 -129 -123 0
123 129 131 0
-15 -131 0
84 -132 -133 0
132 -84 -133 0
-84 -132 133 0
84 132 133 0
-12 -133 0
132 -85 -134 0
85 -132 -134 0
134 -132 -85 0
134 132 85 0
-13 134 0
-84 135 0
-85 135 0
-86 135 0
-87 135 0
-88 135 0
-89 135 0
-90 135 0
136 0
132 -135 -137 0
-132 135 -137 0
-132 -135 137 0
132 135 137 0
-14 137 0
84 138 0
85 138 0
86 138 0
87 138 0
88 138 0
89 138 0
90 138 0
-139 0
-132 138 -140 0
132 -138 -140 0
140 -138 -132 0
132 138 140 0
-15 -140 0
85 -141 -142 0
141 -85 -142 0
-85 -141 142 0
85 141 142 0
-12 -142 0
141 -86 -143 0
86 -141 -143 0
143 -141 -86 0
143 141 86 0
-13 143 0
-85 144 0
-86 144 0
-87 144 0
-88 144 0
-89 144 0
-90 144 0
145 0
141 -144 -146 0
-141 144 -146 0
-141 -144 146 0
141 144 146 0
-14 146 0
85 147 0
86 147 0
87 147 0
88 147 0
89 147 0
90 147 0
-148 0
-141 147 -149 0
141 -147 -149 0
149 -147 -141 0
141 147 149 0
-15 -149 0
86 -150 -151 0
150 -86 -151 0
-86 -150 151 0
86 150 151 0
-12 -151 0
150 -87 -152 0
87 -150 -152 0
152 -150 -87 0
152 150 87 0
-13 152 0
150 -144 -153 0
-150 144 -153 0
-150 -144 153 0
150 144 153 0
-14 153 0
-150 147 -154 0
150 -147 -154 0
154 -147 -150 0
150 147 154 0
-15 -154 0
87 -155 -156 0
155 -87 -156 0
-87 -155 156 0
87 155 156 0
-12 -156 0
155 -88 -157 0
88 -155 -157 0
157 -155 -88 0
157 155 88 0
-13 157 0
155 -144 -158 0
-155 144 -158 0
-155 -144 158 0
155 144 158 0
-14 158 0
-155 147 -159 0
155 -147 -159 0
159 -147 -155 0
155 147 159 0
-15 -159 0
88 -160 -161 0
160 -88 -161 0
-88 -160 161 0
88 160 161 0
-12 -161 0
160 -89 -162 0
89 -160 -162 0
162 -160 -89 0
162 160 89 0
-13 162 0
160 -144 -163 0
-160 144 -163 0
-160 -144 163 0
160 144 163 0
-14 163 0
-160 147 -164 0
160 -147 -164 0
164 -147 -160 0
160 147 164 0
-15 -164 0
89 -165 -166 0
165 -89 -166 0
-89 -165 166 0
89 165 166 0
-12 -166 0
165 -90 -167 0
90 -165 -167 0
167 -165 -90 0
167 165 90 0
-13 167 0
165 -144 -168 0
-165 144 -168 0
-165 -144 168 0
165 144 168 0
-14 168 0
-165 147 -169 0
165 -147 -169 0
169 -147 -165 0
165 147 169 0
-15 -169 0
90 -170 -171 0
170 -90 -171 0
-90 -170 171 0
90 170 171 0
-12 -171 0
-85 170 -172 0
85 -170 -172 0
172 -170 -85 0
172 170 85 0
-13 172 0
-90 173 0
-141 173 0
90 141 -173 0
170 -173 -174 0
-170 173 -174 0
-170 -173 174 0
170 173 174 0
-14 174 0
90 175 0
141 175 0
-90 -141 -175 0
-170 175 -176 0
170 -175 -176 0
176 -175 -170 0
170 175 176 0
-15 -176 0
177 -4 -178 0
4 -177 -178 0
-177 -4 178 0
4 177 178 0
-12 -178 0
4 -179 -180 0
179 -4 -180 0
180 -4 -179 0
180 4 179 0
-13 180 0
-177 181 0
-179 181 0
-182 181 0
-183 181 0
-184 181 0
-185 181 0
-186 181 0
-187 181 0
-188 181 0
-189 181 0
-190 181 0
191 0
4 -181 -192 0
-4 181 -192 0
-4 -181 192 0
4 181 192 0
-14 192 0
177 193 0
179 193 0
182 193 0
183 193 0
184 193 0
185 193 0
186 193 0
187 193 0
188 193 0
189 193 0
190 193 0
-194 0
-4 193 -195 0
4 -193 -195 0
195 -193 -4 0
4 193 195 0
-15 -195 0
179 -196 -197 0
196 -179 -197 0
-179 -196 197 0
179 196 197 0
-12 -197 0
196 -182 -198 0
182 -196 -198 0
198 -196 -182 0
198 196 182 0
-13 198 0
-179 199 0
-182 199 0
-183 199 0
-184 199 0
-185 199 0
-186 199 0
-187 199 0
-188 199 0
-189 199 0
-190 199 0
200 0
196 -199 -201 0
-196 199 -201 0
-196 -199 201 0
196 199 201 0
-14 201 0
179 202 0
182 202 0
183 202 0
184 202 0
185 202 0
186 202 0
187 202 0
188 202 0
189 202 0
190 202 0
-203 0
-196 202 -204 0
196 -202 -204 0
204 -202 -196 0
196 202 204 0
-15 -204 0
182 -205 -206 0
205 -182 -206 0
-182 -205 206 0
182 205 206 0
-12 -206 0
205 -183 -207 0
183 -205 -207 0
207 -205 -183 0
207 205 183 0
-13 207 0
-182 208 0
-183 208 0
-184 208 0
-185 208 0
-186 208 0
-187 208 0
-188 208 0
-189 208 0
-190 208 0
209 0
205 -208 -210 0
-205 208 -210 0
-205 -208 210 0
205 208 210 0
-14 210 0
182 211 0
183 211 0
184 211 0
185 211 0
186 211 0
187 211 0
188 211 0
189 211 0
190 211 0
-212 0
-205 211 -213 0
205 -211 -213 0
213 -211 -205 0
205 211 213 0
-15 -213 0
183 -214 -215 0
214 -183 -215 0
-183 -214 215 0
183 214 215 0
-12 -215 0
214 -184 -216 0
184 -214 -216 0
216 -214 -184 0
216 214 184 0
-13 216 0
-183 217 0
-184 217 0
-185 217 0
-186 217 0
-187 217 0
-188 217 0
-189 217 0
-190 217 0
218 0
214 -217 -219 0
-214 217 -219 0
-214 -217 219 0
214 217 219 0
-14 219 0
183 220 0
184 220 0
185 220 0
186 220 0
187 220 0
188 220 0
189 220 0
190 220 0
-221 0
-214 220 -222 0
214 -220 -222 0
222 -220 -214 0
214 220 222 0
-15 -222 0
184 -223 -224 0
223 -184 -224 0
-184 -223 224 0
184 223 224 0
-12 -224 0
223 -185 -225 0
185 -223 -225 0
225 -223 -185 0
225 223 185 0
-13 225 0
-184 226 0
-185 226 0
-186 226 0
-187 226 0
-188 226 0
-189 226 0
-190 226 0
227 0
223 -226 -228 0
-223 226 -228 0
-223 -226 228 0
223 226 228 0
-14 228 0
184 229 0
185 229 0
186 229 0
187 229 0
188 229 0
189 229 0
190 229 0
-230 0
-223 229 -231 0
223 -229 -231 0
231 -229 -223 0
223 229 231 0
-15 -231 0
185 -232 -233 0
232 -185 -233 0
-185 -232 233 0
185 232 233 0
-12 -233 0
232 -186 -234 0
186 -232 -234 0
234 -232 -186 0
234 232 186 0
-13 234 0
-185 235 0
-186 235 0
-187 235 0
-188 235 0
-189 235 0
-190 235 0
236 0
232 -235 -237 0
-232 235 -237 0
-232 -235 237 0
232 235 237 0
-14 237 0
185 238 0
186 238 0
187 238 0
188 238 0
189 238 0
190 238 0
-239 0
-232 238 -240 0
232 -238 -240 0
240 -238 -232 0
232 238 240 0
-15 -240 0
186 -241 -242 0
241 -186 -242 0
-186 -241 242 0
186 241 242 0
-12 -242 0
241 -187 -243 0
187 -241 -243 0
243 -241 -187 0
243 241 187 0
-13 243 0
-186 244 0
-187 244 0
-188 244 0
-189 244 0
-190 244 0
186 187 188 189 190 -244 0
241 -244 -245 0
-241 244 -245 0
-241 -244 245 0
241 244 245 0
-14 245 0
186 246 0
187 246 0
188 246 0
189 246 0
190 246 0
-247 0
-241 246 -248 0
241 -246 -248 0
248 -246 -241 0
241 246 248 0
-15 -248 0
187 -249 -250 0
249 -187 -250 0
-187 -249 250 0
187 249 250 0
-12 -250 0
249 -188 -251 0
188 -249 -251 0
251 -249 -188 0
251 249 188 0
-13 251 0
249 -244 -252 0
-249 244 -252 0
-249 -244 252 0
249 244 252 0
-14 252 0
-249 246 -253 0
249 -246 -253 0
253 -246 -249 0
249 246 253 0
-15 -253 0
188 -254 -255 0
254 -188 -255 0
-188 -254 255 0
188 254 255 0
-12 -255 0
254 -189 -256 0
189 -254 -256 0
256 -254 -189 0
256 254 189 0
-13 256 0
254 -244 -257 0
-254 244 -257 0
-254 -244 257 0
254 244 257 0
-14 257 0
-254 246 -258 0
254 -246 -258 0
258 -246 -254 0
254 246 258 0
-15 -258 0
189 -259 -260 0
259 -189 -260 0
-189 -259 260 0
189 259 260 0
-12 -260 0
259 -190 -261 0
190 -259 -261 0
261 -259 -190 0
261 259 190 0
-13 261 0
259 -244 -262 0
-259 244 -262 0
-259 -244 262 0
259 244 262 0
-14 262 0
-259 246 -263 0
259 -246 -263 0
263 -246 -259 0
259 246 263 0
-15 -263 0
190 -264 -265 0
264 -190 -265 0
-190 -264 265 0
190 264 265 0
-12 -265 0
-186 264 -266 0
186 -264 -266 0
266 -264 -186 0
266 264 186 0
-13 266 0
-190 267 0
-241 267 0
190 241 -267 0
264 -267 -268 0
-264 267 -268 0
-264 -267 268 0
264 267 268 0
-14 268 0
190 269 0
241 269 0
-190 -241 -269 0
-264 269 -270 0
264 -269 -270 0
270 -269 -264 0
264 269 270 0
-15 -270 0
271 -5 -272 0
5 -271 -272 0
-271 -5 272 0
5 271 272 0
-12 -272 0
-23 5 -273 0
23 -5 -273 0
273 -5 -23 0
273 5 23 0
-13 273 0
-23 274 0
-25 274 0
-28 274 0
-29 274 0
-30 274 0
-31 274 0
-32 274 0
-271 274 0
275 0
5 -274 -276 0
-5 274 -276 0
-5 -274 276 0
5 274 276 0
-14 276 0
23 277 0
25 277 0
28 277 0
29 277 0
30 277 0
31 277 0
32 277 0
271 277 0
-278 0
-5 277 -279 0
5 -277 -279 0
279 -277 -5 0
5 277 279 0
-15 -279 0
280 -6 -281 0
6 -280 -281 0
-280 -6 281 0
6 280 281 0
-12 -281 0
6 -282 -283 0
282 -6 -283 0
283 -6 -282 0
283 6 282 0
-13 283 0
-28 284 0
-29 284 0
-30 284 0
-31 284 0
-32 284 0
-280 284 0
-282 284 0
-285 284 0
-286 284 0
287 0
6 -284 -288 0
-6 284 -288 0
-6 -284 288 0
6 284 288 0
-14 288 0
28 289 0
29 289 0
30 289 0
31 289 0
32 289 0
280 289 0
282 289 0
285 289 0
286 289 0
-290 0
-6 289 -291 0
6 -289 -291 0
291 -289 -6 0
6 289 291 0
-15 -291 0
282 -292 -293 0
292 -282 -293 0
-282 -292 293 0
282 292 293 0
-12 -293 0
292 -285 -294 0
285 -292 -294 0
294 -292 -285 0
294 292 285 0
-13 294 0
-28 295 0
-29 295 0
-30 295 0
-31 295 0
-32 295 0
-282 295 0
-285 295 0
-286 295 0
296 0
292 -295 -297 0
-292 295 -297 0
-292 -295 297 0
292 295 297 0
-14 297 0
28 298 0
29 298 0
30 298 0
31 298 0
32 298 0
282 298 0
285 298 0
286 298 0
-299 0
-292 298 -300 0
292 -298 -300 0
300 -298 -292 0
292 298 300 0
-15 -300 0
285 -301 -302 0
301 -285 -302 0
-285 -301 302 0
285 301 302 0
-12 -302 0
301 -286 -303 0
286 -301 -303 0
303 -301 -286 0
303 301 286 0
-13 303 0
-28 304 0
-29 304 0
-30 304 0
-31 304 0
-32 304 0
-285 304 0
-286 304 0
305 0
301 -304 -306 0
-301 304 -306 0
-301 -304 306 0
301 304 306 0
-14 306 0
28 307 0
29 307 0
30 307 0
31 307 0
32 307 0
285 307 0
286 307 0
-308 0
-301 307 -309 0
301 -307 -309 0
309 -307 -301 0
301 307 309 0
-15 -309 0
286 -310 -311 0
310 -286 -311 0
-286 -310 311 0
286 310 311 0
-12 -311 0
-31 310 -312 0
31 -310 -312 0
312 -310 -31 0
312 310 31 0
-13 312 0
-28 313 0
-29 313 0
-30 313 0
-31 313 0
-32 313 0
-286 313 0
28 29 30 31 32 286 -313 0
310 -313 -314 0
-310 313 -314 0
-310 -313 314 0
310 313 314 0
-14 314 0
28 315 0
29 315 0
30 315 0
31 315 0
32 315 0
286 315 0
-316 0
-310 315 -317 0
310 -315 -317 0
317 -315 -310 0
310 315 317 0
-15 -317 0
318 -7 -319 0
7 -318 -319 0
-318 -7 319 0
7 318 319 0
-12 -319 0
7 -320 -321 0
320 -7 -321 0
321 -7 -320 0
321 7 320 0
-13 321 0
-318 322 0
-320 322 0
-323 322 0
-324 322 0
-325 322 0
-326 322 0
327 0
7 -322 -328 0
-7 322 -328 0
-7 -322 328 0
7 322 328 0
-14 328 0
318 329 0
320 329 0
323 329 0
324 329 0
325 329 0
326 329 0
-330 0
-7 329 -331 0
7 -329 -331 0
331 -329 -7 0
7 329 331 0
-15 -331 0
320 -332 -333 0
332 -320 -333 0
-320 -332 333 0
320 332 333 0
-12 -333 0
332 -323 -334 0
323 -332 -334 0
334 -332 -323 0
334 332 323 0
-13 334 0
-320 335 0
-323 335 0
-324 335 0
-325 335 0
-326 335 0
320 323 324 325 326 -335 0
332 -335 -336 0
-332 335 -336 0
-332 -335 336 0
332 335 336 0
-14 336 0
320 337 0
323 337 0
324 337 0
325 337 0
326 337 0
-338 0
-332 337 -339 0
332 -337 -339 0
339 -337 -332 0
332 337 339 0
-15 -339 0
323 -340 -341 0
340 -323 -341 0
-323 -340 341 0
323 340 341 0
-12 -341 0
340 -324 -342 0
324 -340 -342 0
342 -340 -324 0
342 340 324 0
-13 342 0
340 -335 -343 0
-340 335 -343 0
-340 -335 343 0
340 335 343 0
-14 343 0
-340 337 -344 0
340 -337 -344 0
344 -337 -340 0
340 337 344 0
-15 -344 0
324 -345 -346 0
345 -324 -346 0
-324 -345 346 0
324 345 346 0
-12 -346 0
345 -325 -347 0
325 -345 -347 0
347 -345 -325 0
347 345 325 0
-13 347 0
345 -335 -348 0
-345 335 -348 0
-345 -335 348 0
345 335 348 0
-14 348 0
-345 337 -349 0
345 -337 -349 0
349 -337 -345 0
345 337 349 0
-15 -349 0
325 -350 -351 0
350 -325 -351 0
-325 -350 351 0
325 350 351 0
-12 -351 0
350 -326 -352 0
326 -350 -352 0
352 -350 -326 0
352 350 326 0
-13 352 0
350 -335 -353 0
-350 335 -353 0
-350 -335 353 0
350 335 353 0
-14 353 0
-350 337 -354 0
350 -337 -354 0
354 -337 -350 0
350 337 354 0
-15 -354 0
326 -355 -356 0
355 -326 -356 0
-326 -355 356 0
326 355 356 0
-12 -356 0
-320 355 -357 0
320 -355 -357 0
357 -355 -320 0
357 355 320 0
-13 357 0
-326 358 0
-332 358 0
326 332 -358 0
355 -358 -359 0
-355 358 -359 0
-355 -358 359 0
355 358 359 0
-14 359 0
326 360 0
332 360 0
-326 -332 -360 0
-355 360 -361 0
355 -360 -361 0
361 -360 -355 0
355 360 361 0
-15 -361 0
362 -8 -363 0
8 -362 -363 0
-362 -8 363 0
8 362 363 0
-12 -363 0
8 -364 -365 0
364 -8 -365 0
365 -8 -364 0
365 8 364 0
-13 365 0
-362 366 0
-364 366 0
-367 366 0
-368 366 0
-369 366 0
-370 366 0
-371 366 0
372 0
8 -366 -373 0
-8 366 -373 0
-8 -366 373 0
8 366 373 0
-14 373 0
362 374 0
364 374 0
367 374 0
368 374 0
369 374 0
370 374 0
371 374 0
-375 0
-8 374 -376 0
8 -374 -376 0
376 -374 -8 0
8 374 376 0
-15 -376 0
364 -377 -378 0
377 -364 -378 0
-364 -377 378 0
364 377 378 0
-12 -378 0
377 -367 -379 0
367 -377 -379 0
379 -377 -367 0
379 377 367 0
-13 379 0
-364 380 0
-367 380 0
-368 380 0
-369 380 0
-370 380 0
-371 380 0
381 0
377 -380 -382 0
-377 380 -382 0
-377 -380 382 0
377 380 382 0
-14 382 0
364 383 0
367 383 0
368 383 0
369 383 0
370 383 0
371 383 0
-384 0
-377 383 -385 0
377 -383 -385 0
385 -383 -377 0
377 383 385 0
-15 -385 0
367 -386 -387 0
386 -367 -387 0
-367 -386 387 0
367 386 387 0
-12 -387 0
386 -368 -388 0
368 -386 -388 0
388 -386 -368 0
388 386 368 0
-13 388 0
-367 389 0
-368 389 0
-369 389 0
-370 389 0
-371 389 0
367 368 369 370 371 -389 0
386 -389 -390 0
-386 389 -390 0
-386 -389 390 0
386 389 390 0
-14 390 0
367 391 0
368 391 0
369 391 0
370 391 0
371 391 0
-392 0
-386 391 -393 0
386 -391 -393 0
393 -391 -386 0
386 391 393 0
-15 -393 0
368 -394 -395 0
394 -368 -395 0
-368 -394 395 0
368 394 395 0
-12 -395 0
394 -369 -396 0
369 -394 -396 0
396 -394 -369 0
396 394 369 0
-13 396 0
-368 397 0
-369 397 0
-370 397 0
-371 397 0
368 369 370 371 -397 0
394 -397 -398 0
-394 397 -398 0
-394 -397 398 0
394 397 398 0
-14 398 0
368 399 0
369 399 0
370 399 0
371 399 0
-400 0
-394 399 -401 0
394 -399 -401 0
401 -399 -394 0
394 399 401 0
-15 -401 0
369 -402 -403 0
402 -369 -403 0
-369 -402 403 0
369 402 403 0
-12 -403 0
402 -370 -404 0
370 -402 -404 0
404 -402 -370 0
404 402 370 0
-13 404 0
402 -397 -405 0
-402 397 -405 0
-402 -397 405 0
402 397 405 0
-14 405 0
-402 399 -406 0
402 -399 -406 0
406 -399 -402 0
402 399 406 0
-15 -406 0
370 -407 -408 0
407 -370 -408 0
-370 -407 408 0
370 407 408 0
-12 -408 0
407 -371 -409 0
371 -407 -409 0
409 -407 -371 0
409 407 371 0
-13 409 0
407 -397 -410 0
-407 397 -410 0
-407 -397 410 0
407 397 410 0
-14 410 0
-407 399 -411 0
407 -399 -411 0
411 -399 -407 0
407 399 411 0
-15 -411 0
371 -412 -413 0
412 -371 -413 0
-371 -412 413 0
371 412 413 0
-12 -413 0
-368 412 -414 0
368 -412 -414 0
414 -412 -368 0
414 412 368 0
-13 414 0
-371 415 0
-394 415 0
371 394 -415 0
412 -415 -416 0
-412 415 -416 0
-412 -415 416 0
412 415 416 0
-14 416 0
371 417 0
394 417 0
-371 -394 -417 0
-412 417 -418 0
412 -417 -418 0
418 -417 -412 0
412 417 418 0
-15 -418 0
419 -9 -420 0
9 -419 -420 0
-419 -9 420 0
9 419 420 0
-12 -420 0
9 -421 -422 0
421 -9 -422 0
422 -9 -421 0
422 9 421 0
-13 422 0
-368 423 0
-369 423 0
-370 423 0
-371 423 0
-419 423 0
-421 423 0
-424 423 0
425 0
9 -423 -426 0
-9 423 -426 0
-9 -423 426 0
9 423 426 0
-14 426 0
368 427 0
369 427 0
370 427 0
371 427 0
419 427 0
421 427 0
424 427 0
-428 0
-9 427 -429 0
9 -427 -429 0
429 -427 -9 0
9 427 429 0
-15 -429 0
421 -430 -431 0
430 -421 -431 0
-421 -430 431 0
421 430 431 0
-12 -431 0
430 -424 -432 0
424 -430 -432 0
432 -430 -424 0
432 430 424 0
-13 432 0
-368 433 0
-369 433 0
-370 433 0
-371 433 0
-421 433 0
-424 433 0
434 0
430 -433 -435 0
-430 433 -435 0
-430 -433 435 0
430 433 435 0
-14 435 0
368 436 0
369 436 0
370 436 0
371 436 0
421 436 0
424 436 0
-437 0
-430 436 -438 0
430 -436 -438 0
438 -436 -430 0
430 436 438 0
-15 -438 0
424 -439 -440 0
439 -424 -440 0
-424 -439 440 0
424 439 440 0
-12 -440 0
-369 439 -441 0
369 -439 -441 0
441 -439 -369 0
441 439 369 0
-13 441 0
-368 442 0
-369 442 0
-370 442 0
-371 442 0
-424 442 0
368 369 370 371 424 -442 0
439 -442 -443 0
-439 442 -443 0
-439 -442 443 0
439 442 443 0
-14 443 0
368 444 0
369 444 0
370 444 0
371 444 0
424 444 0
-445 0
-439 444 -446 0
439 -444 -446 0
446 -444 -439 0
439 444 446 0
-15 -446 0
447 -10 -448 0
10 -447 -448 0
-447 -10 448 0
10 447 448 0
-12 -448 0
10 -449 -450 0
449 -10 -450 0
450 -10 -449 0
450 10 449 0
-13 450 0
-368 451 0
-369 451 0
-370 451 0
-371 451 0
-447 451 0
-449 451 0
-452 451 0
-453 451 0
-454 451 0
455 0
10 -451 -456 0
-10 451 -456 0
-10 -451 456 0
10 451 456 0
-14 456 0
368 457 0
369 457 0
370 457 0
371 457 0
447 457 0
449 457 0
452 457 0
453 457 0
454 457 0
-458 0
-10 457 -459 0
10 -457 -459 0
459 -457 -10 0
10 457 459 0
-15 -459 0
449 -460 -461 0
460 -449 -461 0
-449 -460 461 0
449 460 461 0
-12 -461 0
460 -452 -462 0
452 -460 -462 0
462 -460 -452 0
462 460 452 0
-13 462 0
-368 463 0
-369 463 0
-370 463 0
-371 463 0
-449 463 0
-452 463 0
-453 463 0
-454 463 0
464 0
460 -463 -465 0
-460 463 -465 0
-460 -463 465 0
460 463 465 0
-14 465 0
368 466 0
369 466 0
370 466 0
371 466 0
449 466 0
452 466 0
453 466 0
454 466 0
-467 0
-460 466 -468 0
460 -466 -468 0
468 -466 -460 0
460 466 468 0
-15 -468 0
452 -469 -470 0
469 -452 -470 0
-452 -469 470 0
452 469 470 0
-12 -470 0
469 -453 -471 0
453 -469 -471 0
471 -469 -453 0
471 469 453 0
-13 471 0
-368 472 0
-369 472 0
-370 472 0
-371 472 0
-452 472 0
-453 472 0
-454 472 0
473 0
469 -472 -474 0
-469 472 -474 0
-469 -472 474 0
469 472 474 0
-14 474 0
368 475 0
369 475 0
370 475 0
371 475 0
452 475 0
453 475 0
454 475 0
-476 0
-469 475 -477 0
469 -475 -477 0
477 -475 -469 0
469 475 477 0
-15 -477 0
453 -478 -479 0
478 -453 -479 0
-453 -478 479 0
453 478 479 0
-12 -479 0
478 -454 -480 0
454 -478 -480 0
480 -478 -454 0
480 478 454 0
-13 480 0
-368 481 0
-369 481 0
-370 481 0
-371 481 0
-453 481 0
-454 481 0
482 0
478 -481 -483 0
-478 481 -483 0
-478 -481 483 0
478 481 483 0
-14 483 0
368 484 0
369 484 0
370 484 0
371 484 0
453 484 0
454 484 0
-485 0
-478 484 -486 0
478 -484 -486 0
486 -484 -478 0
478 484 486 0
-15 -486 0
454 -487 -488 0
487 -454 -488 0
-454 -487 488 0
454 487 488 0
-12 -488 0
-370 487 -489 0
370 -487 -489 0
489 -487 -370 0
489 487 370 0
-13 489 0
-368 490 0
-369 490 0
-370 490 0
-371 490 0
-454 490 0
368 369 370 371 454 -490 0
487 -490 -491 0
-487 490 -491 0
-487 -490 491 0
487 490 491 0
-14 491 0
368 492 0
369 492 0
370 492 0
371 492 0
454 492 0
-493 0
-487 492 -494 0
487 -492 -494 0
494 -492 -487 0
487 492 494 0
-15 -494 0
495 -11 -496 0
11 -495 -496 0
-495 -11 496 0
11 495 496 0
-12 -496 0
11 -497 -498 0
497 -11 -498 0
498 -11 -497 0
498 11 497 0
-13 498 0
-495 499 0
-497 499 0
-500 499 0
-501 499 0
-502 499 0
-503 499 0
-504 499 0
-505 499 0
-506 499 0
-507 499 0
-508 499 0
509 0
11 -499 -510 0
-11 499 -510 0
-11 -499 510 0
11 499 510 0
-14 510 0
495 511 0
497 511 0
500 511 0
501 511 0
502 511 0
503 511 0
504 511 0
505 511 0
506 511 0
507 511 0
508 511 0
-512 0
-11 511 -513 0
11 -511 -513 0
513 -511 -11 0
11 511 513 0
-15 -513 0
497 -514 -515 0
514 -497 -515 0
-497 -514 515 0
497 514 515 0
-12 -515 0
514 -500 -516 0
500 -514 -516 0
516 -514 -500 0
516 514 500 0
-13 516 0
-497 517 0
-500 517 0
-501 517 0
-502 517 0
-503 517 0
-504 517 0
-505 517 0
-506 517 0
-507 517 0
-508 517 0
518 0
514 -517 -519 0
-514 517 -519 0
-514 -517 519 0
514 517 519 0
-14 519 0
497 520 0
500 520 0
501 520 0
502 520 0
503 520 0
504 520 0
505 520 0
506 520 0
507 520 0
508 520 0
-521 0
-514 520 -522 0
514 -520 -522 0
522 -520 -514 0
514 520 522 0
-15 -522 0
500 -523 -524 0
523 -500 -524 0
-500 -523 524 0
500 523 524 0
-12 -524 0
523 -501 -525 0
501 -523 -525 0
525 -523 -501 0
525 523 501 0
-13 525 0
-500 526 0
-501 526 0
-502 526 0
-503 526 0
-504 526 0
-505 526 0
-506 526 0
-507 526 0
-508 526 0
527 0
523 -526 -528 0
-523 526 -528 0
-523 -526 528 0
523 526 528 0
-14 528 0
500 529 0
501 529 0
502 529 0
503 529 0
504 529 0
505 529 0
506 529 0
507 529 0
508 529 0
-530 0
-523 529 -531 0
523 -529 -531 0
531 -529 -523 0
523 529 531 0
-15 -531 0
501 -532 -533 0
532 -501 -533 0
-501 -532 533 0
501 532 533 0
-12 -533 0
532 -502 -534 0
502 -532 -534 0
534 -532 -502 0
534 532 502 0
-13 534 0
-501 535 0
-502 535 0
-503 535 0
-504 535 0
-505 535 0
-506 535 0
-507 535 0
-508 535 0
536 0
532 -535 -537 0
-532 535 -537 0
-532 -535 537 0
532 535 537 0
-14 537 0
501 538 0
502 538 0
503 538 0
504 538 0
505 538 0
506 538 0
507 538 0
508 538 0
-539 0
-532 538 -540 0
532 -538 -540 0
540 -538 -532 0
532 538 540 0
-15 -540 0
502 -541 -542 0
541 -502 -542 0
-502 -541 542 0
502 541 542 0
-12 -542 0
541 -503 -543 0
503 -541 -543 0
543 -541 -503 0
543 541 503 0
-13 543 0
-502 544 0
-503 544 0
-504 544 0
-505 544 0
-506 544 0
-507 544 0
-508 544 0
545 0
541 -544 -546 0
-541 544 -546 0
-541 -544 546 0
541 544 546 0
-14 546 0
502 547 0
503 547 0
504 547 0
505 547 0
506 547 0
507 547 0
508 547 0
-548 0
-541 547 -549 0
541 -547 -549 0
549 -547 -541 0
541 547 549 0
-15 -549 0
503 -550 -551 0
550 -503 -551 0
-503 -550 551 0
503 550 551 0
-12 -551 0
550 -504 -552 0
504 -550 -552 0
552 -550 -504 0
552 550 504 0
-13 552 0
-503 553 0
-504 553 0
-505 553 0
-506 553 0
-507 553 0
-508 553 0
554 0
550 -553 -555 0
-550 553 -555 0
-550 -553 555 0
550 553 555 0
-14 555 0
503 556 0
504 556 0
505 556 0
506 556 0
507 556 0
508 556 0
-557 0
-550 556 -558 0
550 -556 -558 0
558 -556 -550 0
550 556 558 0
-15 -558 0
504 -559 -560 0
559 -504 -560 0
-504 -559 560 0
504 559 560 0
-12 -560 0
559 -505 -561 0
505 -559 -561 0
561 -559 -505 0
561 559 505 0
-13 561 0
559 -553 -562 0
-559 553 -562 0
-559 -553 562 0
559 553 562 0
-14 562 0
-559 556 -563 0
559 -556 -563 0
563 -556 -559 0
559 556 563 0
-15 -563 0
505 -564 -565 0
564 -505 -565 0
-505 -564 565 0
505 564 565 0
-12 -565 0
564 -506 -566 0
506 -564 -566 0
566 -564 -506 0
566 564 506 0
-13 566 0
564 -553 -567 0
-564 553 -567 0
-564 -553 567 0
564 553 567 0
-14 567 0
-564 556 -568 0
564 -556 -568 0
568 -556 -564 0
564 556 568 0
-15 -568 0
506 -569 -570 0
569 -506 -570 0
-506 -569 570 0
506 569 570 0
-12 -570 0
569 -507 -571 0
507 -569 -571 0
571 -569 -507 0
571 569 507 0
-13 571 0
569 -553 -572 0
-569 553 -572 0
-569 -553 572 0
569 553 572 0
-14 572 0
-569 556 -573 0
569 -556 -573 0
573 -556 -569 0
569 556 573 0
-15 -573 0
507 -574 -575 0
574 -507 -575 0
-507 -574 575 0
507 574 575 0
-12 -575 0
574 -508 -576 0
508 -574 -576 0
576 -574 -508 0
576 574 508 0
-13 576 0
574 -553 -577 0
-574 553 -577 0
-574 -553 577 0
574 553 577 0
-14 577 0
-574 556 -578 0
574 -556 -578 0
578 -556 -574 0
574 556 578 0
-15 -578 0
508 -579 -580 0
579 -508 -580 0
-508 -579 580 0
508 579 580 0
-12 -580 0
-503 579 -581 0
503 -579 -581 0
581 -579 -503 0
581 579 503 0
-13 581 0
-508 582 0
-550 582 0
508 550 -582 0
579 -582 -583 0
-579 582 -583 0
-579 -582 583 0
579 582 583 0
-14 583 0
508 584 0
550 584 0
-508 -550 -584 0
-579 584 -585 0
579 -584 -585 0
585 -584 -579 0
579 584 585 0
-15 -585 0
-16 586 -587 0
16 -586 -587 0
-16 -586 587 0
16 586 587 0
-587 0
-23 588 -589 0
23 -588 -589 0
-23 -588 589 0
23 588 589 0
-589 0
-25 590 -591 0
25 -590 -591 0
-25 -590 591 0
25 590 591 0
-591 0
-28 592 -593 0
28 -592 -593 0
-28 -592 593 0
28 592 593 0
-593 0
-29 594 -595 0
29 -594 -595 0
-29 -594 595 0
29 594 595 0
-595 0
-30 596 -597 0
30 -596 -597 0
-30 -596 597 0
30 596 597 0
-597 0
-31 598 -599 0
31 -598 -599 0
-31 -598 599 0
31 598 599 0
-599 0
-32 600 -601 0
32 -600 -601 0
-32 -600 601 0
32 600 601 0
-601 0
-76 602 -603 0
76 -602 -603 0
-76 -602 603 0
76 602 603 0
-603 0
-78 604 -605 0
78 -604 -605 0
-78 -604 605 0
78 604 605 0
-605 0
-81 606 -607 0
81 -606 -607 0
-81 -606 607 0
81 606 607 0
-607 0
-82 608 -609 0
82 -608 -609 0
-82 -608 609 0
82 608 609 0
-609 0
-83 610 -611 0
83 -610 -611 0
-83 -610 611 0
83 610 611 0
-611 0
-84 612 -613 0
84 -612 -613 0
-84 -612 613 0
84 612 613 0
-613 0
-85 614 -615 0
85 -614 -615 0
-85 -614 615 0
85 614 615 0
-615 0
-86 616 -617 0
86 -616 -617 0
-86 -616 617 0
86 616 617 0
-617 0
-87 618 -619 0
87 -618 -619 0
-87 -618 619 0
87 618 619 0
-619 0
-88 620 -621 0
88 -620 -621 0
-88 -620 621 0
88 620 621 0
-621 0
-89 622 -623 0
89 -622 -623 0
-89 -622 623 0
89 622 623 0
-623 0
-90 624 -625 0
90 -624 -625 0
-90 -624 625 0
90 624 625 0
-625 0
-177 626 -627 0
177 -626 -627 0
-177 -626 627 0
177 626 627 0
-627 0
-179 628 -629 0
179 -628 -629 0
-179 -628 629 0
179 628 629 0
-629 0
-182 630 -631 0
182 -630 -631 0
-182 -630 631 0
182 630 631 0
-631 0
-183 632 -633 0
183 -632 -633 0
-183 -632 633 0
183 632 633 0
-633 0
-184 634 -635 0
184 -634 -635 0
-184 -634 635 0
184 634 635 0
-635 0
-185 636 -637 0
185 -636 -637 0
-185 -636 637 0
185 636 637 0
-637 0
-186 638 -639 0
186 -638 -639 0
-186 -638 639 0
186 638 639 0
-639 0
-187 640 -641 0
187 -640 -641 0
-187 -640 641 0
187 640 641 0
-641 0
-188 642 -643 0
188 -642 -643 0
-188 -642 643 0
188 642 643 0
-643 0
-189 644 -645 0
189 -644 -645 0
-189 -644 645 0
189 644 645 0
-645 0
-190 646 -647 0
190 -646 -647 0
-190 -646 647 0
190 646 647 0
-647 0
-271 648 -649 0
271 -648 -649 0
-271 -648 649 0
271 648 649 0
-649 0
-280 650 -651 0
280 -650 -651 0
-280 -650 651 0
280 650 651 0
-651 0
-282 652 -653 0
282 -652 -653 0
-282 -652 653 0
282 652 653 0
-653 0
-285 654 -655 0
285 -654 -655 0
-285 -654 655 0
285 654 655 0
-655 0
-286 656 -657 0
286 -656 -657 0
-286 -656 657 0
286 656 657 0
-657 0
-318 658 -659 0
318 -658 -659 0
-318 -658 659 0
318 658 659 0
-659 0
-320 660 -661 0
320 -660 -661 0
-320 -660 661 0
320 660 661 0
-661 0
-323 662 -663 0
323 -662 -663 0
-323 -662 663 0
323 662 663 0
-663 0
-324 664 -665 0
324 -664 -665 0
-324 -664 665 0
324 664 665 0
-665 0
-325 666 -667 0
325 -666 -667 0
-325 -666 667 0
325 666 667 0
-667 0
-326 668 -669 0
326 -668 -669 0
-326 -668 669 0
326 668 669 0
-669 0
-362 670 -671 0
362 -670 -671 0
-362 -670 671 0
362 670 671 0
-671 0
-364 672 -673 0
364 -672 -673 0
-364 -672 673 0
364 672 673 0
-673 0
-367 674 -675 0
367 -674 -675 0
-367 -674 675 0
367 674 675 0
-675 0
-368 676 -677 0
368 -676 -677 0
-368 -676 677 0
368 676 677 0
-677 0
-369 678 -679 0
369 -678 -679 0
-369 -678 679 0
369 678 679 0
-679 0
-370 680 -681 0
370 -680 -681 0
-370 -680 681 0
370 680 681 0
-681 0
-371 682 -683 0
371 -682 -683 0
-371 -682 683 0
371 682 683 0
-683 0
-419 684 -685 0
419 -684 -685 0
-419 -684 685 0
419 684 685 0
-685 0
-421 686 -687 0
421 -686 -687 0
-421 -686 687 0
421 686 687 0
-687 0
-424 688 -689 0
424 -688 -689 0
-424 -688 689 0
424 688 689 0
-689 0
-447 690 -691 0
447 -690 -691 0
-447 -690 691 0
447 690 691 0
-691 0
-449 692 -693 0
449 -692 -693 0
-449 -692 693 0
449 692 693 0
-693 0
-452 694 -695 0
452 -694 -695 0
-452 -694 695 0
452 694 695 0
-695 0
-453 696 -697 0
453 -696 -697 0
-453 -696 697 0
453 696 697 0
-697 0
-454 698 -699 0
454 -698 -699 0
-454 -698 699 0
454 698 699 0
-699 0
-495 700 -701 0
495 -700 -701 0
-495 -700 701 0
495 700 701 0
-701 0
-497 702 -703 0
497 -702 -703 0
-497 -702 703 0
497 702 703 0
-703 0
-500 704 -705 0
500 -704 -705 0
-500 -704 705 0
500 704 705 0
-705 0
-501 706 -707 0
501 -706 -707 0
-501 -706 707 0
501 706 707 0
-707 0
-502 708 -709 0
502 -708 -709 0
-502 -708 709 0
502 708 709 0
-709 0
-503 710 -711 0
503 -710 -711 0
-503 -710 711 0
503 710 711 0
-711 0
-504 712 -713 0
504 -712 -713 0
-504 -712 713 0
504 712 713 0
-713 0
-505 714 -715 0
505 -714 -715 0
-505 -714 715 0
505 714 715 0
-715 0
-506 716 -717 0
506 -716 -717 0
-506 -716 717 0
506 716 717 0
-717 0
-507 718 -719 0
507 -718 -719 0
-507 -718 719 0
507 718 719 0
-719 0
-508 720 -721 0
508 -720 -721 0
-508 -720 721 0
508 720 721 0
-721 0
-586 0
588 0
590 0
-592 0
-594 0
-596 0
598 0
-600 0
-602 0
-604 0
606 0
608 0
-610 0
612 0
614 0
-616 0
618 0
620 0
-622 0
-624 0
-626 0
-628 0
630 0
-632 0
-634 0
636 0
638 0
-640 0
642 0
-644 0
-646 0
648 0
-650 0
-652 0
654 0
656 0
658 0
660 0
662 0
664 0
666 0
-668 0
670 0
-672 0
674 0
-676 0
678 0
680 0
-682 0
684 0
686 0
688 0
690 0
692 0
694 0
696 0
-698 0
700 0
702 0
704 0
706 0
-708 0
-710 0
712 0
-714 0
716 0
718 0
720 0
